c FILE /home/rafael/Documents/HappySet/MIHS/inputs/happygen/output/graph_d_regular_k7_p0.5_v100_20241127_084105.txt
c SOURCE This is a d-regular graph formed for the happy graph colouring problem.
c DESCRIPTION It was generated using the problem generator of Rhyd Lewis
c
c GRAPH STATS
c Seed                             = 100961861
c Number of Nodes                  = 100
c Number of colours k              = 7
c Number of pre-assignments        = 50
c Degree of all vertices           = 6
c Density                          = 0.0606061
c 
c The degrees of nodes 1 to 100, respectively, are as follows 
c [6, 6, 6, 6, 6, 6, 6, 6, 6, 6, 6, 6, 6, 6, 6, 6, 6, 6, 6, 6, 6, 6, 6, 6, 6, 6, 
c  6, 6, 6, 6, 6, 6, 6, 6, 6, 6, 6, 6, 6, 6, 6, 6, 6, 6, 6, 6, 6, 6, 6, 6, 6, 
c  6, 6, 6, 6, 6, 6, 6, 6, 6, 6, 6, 6, 6, 6, 6, 6, 6, 6, 6, 6, 6, 6, 6, 6, 6, 
c  6, 6, 6, 6, 6, 6, 6, 6, 6, 6, 6, 6, 6, 6, 6, 6, 6, 6, 6, 6, 6, 6, 6, 6] 
c  
p edge 100 300 7
e 1 8
e 1 17
e 1 24
e 1 43
e 1 76
e 1 80
e 2 4
e 2 24
e 2 27
e 2 29
e 2 31
e 2 53
e 3 20
e 3 32
e 3 33
e 3 56
e 3 81
e 3 87
e 4 10
e 4 41
e 4 44
e 4 52
e 4 60
e 5 45
e 5 52
e 5 54
e 5 84
e 5 93
e 5 96
e 6 9
e 6 18
e 6 54
e 6 58
e 6 72
e 6 98
e 7 19
e 7 25
e 7 32
e 7 40
e 7 49
e 7 99
e 8 44
e 8 52
e 8 59
e 8 76
e 8 95
e 9 49
e 9 55
e 9 65
e 9 66
e 9 90
e 10 22
e 10 23
e 10 42
e 10 53
e 10 98
e 11 18
e 11 42
e 11 56
e 11 66
e 11 80
e 11 86
e 12 32
e 12 34
e 12 42
e 12 45
e 12 64
e 12 86
e 13 22
e 13 34
e 13 45
e 13 55
e 13 75
e 13 97
e 14 15
e 14 19
e 14 30
e 14 68
e 14 70
e 14 97
e 15 20
e 15 23
e 15 36
e 15 40
e 15 56
e 16 26
e 16 43
e 16 61
e 16 75
e 16 79
e 16 83
e 17 19
e 17 31
e 17 48
e 17 61
e 17 79
e 18 22
e 18 39
e 18 58
e 18 78
e 19 61
e 19 76
e 19 86
e 20 43
e 20 57
e 20 72
e 20 84
e 21 33
e 21 35
e 21 39
e 21 49
e 21 84
e 21 100
e 22 27
e 22 57
e 22 96
e 23 47
e 23 70
e 23 87
e 23 92
e 24 40
e 24 51
e 24 69
e 24 100
e 25 33
e 25 39
e 25 46
e 25 78
e 25 91
e 26 63
e 26 77
e 26 93
e 26 94
e 26 97
e 27 40
e 27 69
e 27 73
e 27 81
e 28 29
e 28 57
e 28 65
e 28 74
e 28 83
e 28 87
e 29 34
e 29 48
e 29 71
e 29 81
e 30 38
e 30 67
e 30 69
e 30 73
e 30 100
e 31 44
e 31 58
e 31 85
e 31 92
e 32 38
e 32 70
e 32 97
e 33 37
e 33 86
e 33 96
e 34 38
e 34 68
e 34 77
e 35 42
e 35 70
e 35 74
e 35 90
e 35 99
e 36 37
e 36 43
e 36 72
e 36 76
e 36 79
e 37 54
e 37 67
e 37 82
e 37 84
e 38 59
e 38 66
e 38 88
e 39 49
e 39 50
e 39 100
e 40 54
e 40 77
e 41 50
e 41 78
e 41 84
e 41 95
e 41 99
e 42 69
e 42 82
e 43 51
e 43 91
e 44 48
e 44 73
e 44 90
e 45 47
e 45 48
e 45 94
e 46 50
e 46 54
e 46 60
e 46 63
e 46 93
e 47 57
e 47 62
e 47 87
e 47 90
e 48 71
e 48 92
e 49 68
e 49 74
e 50 73
e 50 75
e 50 80
e 51 62
e 51 85
e 51 88
e 51 89
e 52 68
e 52 92
e 52 95
e 53 57
e 53 65
e 53 67
e 53 83
e 54 81
e 55 56
e 55 64
e 55 87
e 55 98
e 56 65
e 56 77
e 57 74
e 58 67
e 58 74
e 58 93
e 59 82
e 59 85
e 59 95
e 59 98
e 60 77
e 60 78
e 60 90
e 60 96
e 61 72
e 61 73
e 61 88
e 62 84
e 62 87
e 62 97
e 62 100
e 63 70
e 63 71
e 63 94
e 63 95
e 64 68
e 64 71
e 64 83
e 64 98
e 65 80
e 65 82
e 66 83
e 66 88
e 66 96
e 67 71
e 67 94
e 68 79
e 69 71
e 69 85
e 70 91
e 72 75
e 72 78
e 73 89
e 74 89
e 75 78
e 75 91
e 76 80
e 76 98
e 77 94
e 79 81
e 79 92
e 80 86
e 81 88
e 82 85
e 82 89
e 83 90
e 85 91
e 86 92
e 88 89
e 89 99
e 91 95
e 93 96
e 93 100
e 94 99
e 97 99
n 1 3
n 2 1
n 4 1
n 5 1
n 9 5
n 11 3
n 12 1
n 14 6
n 19 6
n 20 6
n 21 5
n 22 1
n 23 5
n 26 1
n 27 1
n 29 1
n 32 1
n 33 5
n 34 1
n 36 1
n 39 5
n 40 1
n 46 1
n 47 5
n 48 1
n 49 5
n 51 5
n 52 1
n 54 1
n 56 3
n 58 7
n 59 5
n 61 6
n 62 5
n 63 1
n 67 7
n 69 1
n 75 4
n 78 4
n 79 1
n 80 3
n 81 1
n 82 5
n 83 5
n 87 5
n 90 5
n 91 4
n 98 5
n 99 2
n 100 5
